
Gurobi 9.0.0 (linux64) logging started Wed Nov 24 21:21:07 2021

Academic license - for non-commercial use only
Gurobi Optimizer version 9.0.0 build v9.0.0rc2 (linux64)
Optimize a model with 6 rows, 6 columns and 14 nonzeros
Model fingerprint: 0x1165abe7
Coefficient statistics:
  Matrix range     [6e-01, 1e+00]
  Objective range  [0e+00, 0e+00]
  Bounds range     [5e-01, 5e+00]
  RHS range        [2e+00, 3e+00]
Presolve removed 6 rows and 6 columns
Presolve time: 0.01s
Presolve: All rows and columns removed
Iteration    Objective       Primal Inf.    Dual Inf.      Time
       0    0.0000000e+00   0.000000e+00   0.000000e+00      1s

Solved in 0 iterations and 0.01 seconds
Optimal objective  0.000000000e+00
Gurobi Optimizer version 9.0.0 build v9.0.0rc2 (linux64)
Optimize a model with 6 rows, 6 columns and 14 nonzeros
Coefficient statistics:
  Matrix range     [6e-01, 1e+00]
  Objective range  [1e+00, 1e+00]
  Bounds range     [5e-01, 5e+00]
  RHS range        [2e+00, 3e+00]
Iteration    Objective       Primal Inf.    Dual Inf.      Time
       0   -1.0000000e+00   0.000000e+00   0.000000e+00      1s

Solved in 0 iterations and 0.01 seconds
Optimal objective -1.000000000e+00
Gurobi Optimizer version 9.0.0 build v9.0.0rc2 (linux64)
Optimize a model with 6 rows, 6 columns and 14 nonzeros
Coefficient statistics:
  Matrix range     [6e-01, 1e+00]
  Objective range  [1e+00, 1e+00]
  Bounds range     [5e-01, 5e+00]
  RHS range        [2e+00, 3e+00]
Iteration    Objective       Primal Inf.    Dual Inf.      Time
       0    1.0000000e+00   2.500000e-01   0.000000e+00      1s
       1   -0.0000000e+00   0.000000e+00   0.000000e+00      1s

Solved in 1 iterations and 0.01 seconds
Optimal objective -0.000000000e+00
Gurobi Optimizer version 9.0.0 build v9.0.0rc2 (linux64)
Optimize a model with 6 rows, 6 columns and 14 nonzeros
Coefficient statistics:
  Matrix range     [6e-01, 1e+00]
  Objective range  [1e+00, 1e+00]
  Bounds range     [5e-01, 5e+00]
  RHS range        [2e+00, 3e+00]
Iteration    Objective       Primal Inf.    Dual Inf.      Time
       0   -1.0000000e+00   0.000000e+00   0.000000e+00      1s

Solved in 0 iterations and 0.01 seconds
Optimal objective -1.000000000e+00
Gurobi Optimizer version 9.0.0 build v9.0.0rc2 (linux64)
Optimize a model with 6 rows, 6 columns and 14 nonzeros
Coefficient statistics:
  Matrix range     [6e-01, 1e+00]
  Objective range  [1e+00, 1e+00]
  Bounds range     [5e-01, 5e+00]
  RHS range        [2e+00, 3e+00]
Iteration    Objective       Primal Inf.    Dual Inf.      Time
       0    1.0000000e+00   1.550001e+01   0.000000e+00      1s
       2   -6.6666666e-01   0.000000e+00   0.000000e+00      1s

Solved in 2 iterations and 0.01 seconds
Optimal objective -6.666666666e-01
Gurobi Optimizer version 9.0.0 build v9.0.0rc2 (linux64)
Optimize a model with 6 rows, 6 columns and 14 nonzeros
Coefficient statistics:
  Matrix range     [6e-01, 1e+00]
  Objective range  [1e+00, 1e+00]
  Bounds range     [5e-01, 5e+00]
  RHS range        [2e+00, 3e+00]
Iteration    Objective       Primal Inf.    Dual Inf.      Time
       0   -3.3333333e-01   0.000000e+00   0.000000e+00      1s

Solved in 0 iterations and 0.01 seconds
Optimal objective -3.333333333e-01
Gurobi Optimizer version 9.0.0 build v9.0.0rc2 (linux64)
Optimize a model with 6 rows, 6 columns and 14 nonzeros
Coefficient statistics:
  Matrix range     [6e-01, 1e+00]
  Objective range  [1e+00, 1e+00]
  Bounds range     [5e-01, 5e+00]
  RHS range        [2e+00, 3e+00]
Iteration    Objective       Primal Inf.    Dual Inf.      Time
       0    2.0000000e+30   8.000000e+30   2.000000e+00      1s
       6    1.0000000e+00   0.000000e+00   0.000000e+00      1s

Solved in 6 iterations and 0.01 seconds
Optimal objective  1.000000000e+00

Gurobi 9.0.0 (linux64) logging started Wed Nov 24 21:21:07 2021

Academic license - for non-commercial use only
Gurobi Optimizer version 9.0.0 build v9.0.0rc2 (linux64)
Optimize a model with 6 rows, 6 columns and 14 nonzeros
Model fingerprint: 0xa635b204
Coefficient statistics:
  Matrix range     [8e-01, 1e+00]
  Objective range  [0e+00, 0e+00]
  Bounds range     [2e-06, 2e+00]
  RHS range        [3e-01, 3e+00]
Presolve removed 4 rows and 3 columns
Presolve time: 0.01s
Presolved: 2 rows, 3 columns, 6 nonzeros

Iteration    Objective       Primal Inf.    Dual Inf.      Time
       0    0.0000000e+00   5.816619e-01   0.000000e+00      1s

Solved in 1 iterations and 0.01 seconds
Infeasible model

Gurobi 9.0.0 (linux64) logging started Wed Nov 24 22:23:01 2021

Academic license - for non-commercial use only
Gurobi Optimizer version 9.0.0 build v9.0.0rc2 (linux64)
Optimize a model with 6 rows, 6 columns and 14 nonzeros
Model fingerprint: 0x1165abe7
Coefficient statistics:
  Matrix range     [6e-01, 1e+00]
  Objective range  [0e+00, 0e+00]
  Bounds range     [5e-01, 5e+00]
  RHS range        [2e+00, 3e+00]
Presolve removed 6 rows and 6 columns
Presolve time: 0.01s
Presolve: All rows and columns removed
Iteration    Objective       Primal Inf.    Dual Inf.      Time
       0    0.0000000e+00   0.000000e+00   0.000000e+00      1s

Solved in 0 iterations and 0.01 seconds
Optimal objective  0.000000000e+00
Gurobi Optimizer version 9.0.0 build v9.0.0rc2 (linux64)
Optimize a model with 6 rows, 6 columns and 14 nonzeros
Coefficient statistics:
  Matrix range     [6e-01, 1e+00]
  Objective range  [1e+00, 1e+00]
  Bounds range     [5e-01, 5e+00]
  RHS range        [2e+00, 3e+00]
Iteration    Objective       Primal Inf.    Dual Inf.      Time
       0   -1.0000000e+00   0.000000e+00   0.000000e+00      1s

Solved in 0 iterations and 0.01 seconds
Optimal objective -1.000000000e+00
Gurobi Optimizer version 9.0.0 build v9.0.0rc2 (linux64)
Optimize a model with 6 rows, 6 columns and 14 nonzeros
Coefficient statistics:
  Matrix range     [6e-01, 1e+00]
  Objective range  [1e+00, 1e+00]
  Bounds range     [5e-01, 5e+00]
  RHS range        [2e+00, 3e+00]
Iteration    Objective       Primal Inf.    Dual Inf.      Time
       0    1.0000000e+00   2.500000e-01   0.000000e+00      1s
       1   -0.0000000e+00   0.000000e+00   0.000000e+00      1s

Solved in 1 iterations and 0.01 seconds
Optimal objective -0.000000000e+00
Gurobi Optimizer version 9.0.0 build v9.0.0rc2 (linux64)
Optimize a model with 6 rows, 6 columns and 14 nonzeros
Coefficient statistics:
  Matrix range     [6e-01, 1e+00]
  Objective range  [1e+00, 1e+00]
  Bounds range     [5e-01, 5e+00]
  RHS range        [2e+00, 3e+00]
Iteration    Objective       Primal Inf.    Dual Inf.      Time
       0   -1.0000000e+00   0.000000e+00   0.000000e+00      1s

Solved in 0 iterations and 0.01 seconds
Optimal objective -1.000000000e+00
Gurobi Optimizer version 9.0.0 build v9.0.0rc2 (linux64)
Optimize a model with 6 rows, 6 columns and 14 nonzeros
Coefficient statistics:
  Matrix range     [6e-01, 1e+00]
  Objective range  [1e+00, 1e+00]
  Bounds range     [5e-01, 5e+00]
  RHS range        [2e+00, 3e+00]
Iteration    Objective       Primal Inf.    Dual Inf.      Time
       0    1.0000000e+00   1.550001e+01   0.000000e+00      1s
       2   -6.6666666e-01   0.000000e+00   0.000000e+00      1s

Solved in 2 iterations and 0.01 seconds
Optimal objective -6.666666666e-01
Gurobi Optimizer version 9.0.0 build v9.0.0rc2 (linux64)
Optimize a model with 6 rows, 6 columns and 14 nonzeros
Coefficient statistics:
  Matrix range     [6e-01, 1e+00]
  Objective range  [1e+00, 1e+00]
  Bounds range     [5e-01, 5e+00]
  RHS range        [2e+00, 3e+00]
Iteration    Objective       Primal Inf.    Dual Inf.      Time
       0   -3.3333333e-01   0.000000e+00   0.000000e+00      1s

Solved in 0 iterations and 0.01 seconds
Optimal objective -3.333333333e-01
Gurobi Optimizer version 9.0.0 build v9.0.0rc2 (linux64)
Optimize a model with 6 rows, 6 columns and 14 nonzeros
Coefficient statistics:
  Matrix range     [6e-01, 1e+00]
  Objective range  [1e+00, 1e+00]
  Bounds range     [5e-01, 5e+00]
  RHS range        [2e+00, 3e+00]
Iteration    Objective       Primal Inf.    Dual Inf.      Time
       0    2.0000000e+30   8.000000e+30   2.000000e+00      1s
       6    1.0000000e+00   0.000000e+00   0.000000e+00      1s

Solved in 6 iterations and 0.01 seconds
Optimal objective  1.000000000e+00

Gurobi 9.0.0 (linux64) logging started Wed Nov 24 22:23:01 2021

Academic license - for non-commercial use only
Gurobi Optimizer version 9.0.0 build v9.0.0rc2 (linux64)
Optimize a model with 6 rows, 6 columns and 14 nonzeros
Model fingerprint: 0xa635b204
Coefficient statistics:
  Matrix range     [8e-01, 1e+00]
  Objective range  [0e+00, 0e+00]
  Bounds range     [2e-06, 2e+00]
  RHS range        [3e-01, 3e+00]
Presolve removed 4 rows and 3 columns
Presolve time: 0.01s
Presolved: 2 rows, 3 columns, 6 nonzeros

Iteration    Objective       Primal Inf.    Dual Inf.      Time
       0    0.0000000e+00   5.816619e-01   0.000000e+00      1s

Solved in 1 iterations and 0.01 seconds
Infeasible model
